scip/project/solution/decomp2.sol

=obj= -160.00000000 
b(0) 1 
b(1) 1 
b(2) 1 
b(3) 1 
b(4) 1 
b(5) 1 
b(6) 1 
b(7) 1 
b(8) 1 
b(9) 1 
b(10) 1 
b(11) 1 
b(12) 1 
b(13) 1 
b(14) 1 
b(15) 1 
x(0,0) 1 
y(97,0) 1 
x(1,0) 1 
x(2,0) 1 
y(121,0) 1 
x(3,4) 1 
x(4,15) 1 
x(5,9) 1 
x(6,0) 1 
y(64,0) 1 
y(101,0) 1 
y(129,0) 1 
y(179,0) 1 
y(86,0) 1 
y(169,0) 1 
y(180,0) 1 
y(110,0) 1 
x(7,0) 1 
y(215,0) 1 
y(208,0) 1 
y(210,0) 1 
x(8,0) 1 
y(94,0) 1 
x(9,0) 1 
x(10,0) 1 
x(11,2) 1 
x(12,0) 1 
x(13,7) 1 
x(14,15) 1 
x(15,0) 1 
y(188,0) 1 
x(16,0) 1 
x(17,0) 1 
x(18,15) 1 
x(19,5) 1 
x(20,12) 1 
x(21,0) 1 
x(22,0) 1 
y(122,0) 1 
x(23,0) 1 
x(24,0) 1 
x(25,0) 1 
x(26,2) 1 
x(27,0) 1 
x(28,0) 1 
y(178,0) 1 
x(29,0) 1 
x(30,0) 1 
x(31,6) 1 
x(32,4) 1 
x(33,0) 1 
y(132,0) 1 
x(34,0) 1 
x(35,0) 1 
x(36,0) 1 
y(184,0) 1 
x(37,0) 1 
x(38,0) 1 
x(39,0) 1 
y(150,0) 1 
x(40,0) 1 
x(41,0) 1 
x(42,0) 1 
y(18,0) 1 
x(43,13) 1 
x(44,0) 1 
y(77,0) 1 
x(45,0) 1 
x(46,0) 1 
x(47,0) 1 
y(35,0) 1 
x(48,0) 1 
y(75,0) 1 
y(216,0) 1 
y(213,0) 1 
x(49,0) 1 
x(50,0) 1 
y(145,0) 1 
x(51,0) 1 
y(31,0) 1 
x(52,0) 1 
y(6,0) 1 
x(53,6) 1 
x(54,0) 1 
y(3,0) 1 
x(55,0) 1 
x(56,1) 1 
x(57,0) 1 
y(148,0) 1 
y(84,0) 1 
y(156,0) 1 
y(159,0) 1 
y(162,0) 1 
y(141,0) 1 
y(192,0) 1 
y(153,0) 1 
x(58,0) 1 
y(200,0) 1 
y(214,0) 1 
x(59,0) 1 
y(114,0) 1 
y(196,0) 1 
x(60,0) 1 
x(61,0) 1 
x(62,10) 1 
x(63,7) 1 
x(64,15) 1 
x(65,0) 1 
y(5,0) 1 
x(66,7) 1 
x(67,3) 1 
x(68,0) 1 
y(149,0) 1 
x(69,0) 1 
x(70,0) 1 
x(71,1) 1 
x(72,15) 1 
x(73,14) 1 
x(74,7) 1 
x(75,12) 1 
x(76,0) 1 
x(77,0) 1 
y(191,0) 1 
y(207,0) 1 
x(78,0) 1 
x(79,0) 1 
x(80,7) 1 
x(81,0) 1 
y(53,0) 1 
x(82,12) 1 
x(83,0) 1 
y(111,0) 1 
x(84,0) 1 
x(85,0) 1 
x(86,1) 1 
x(87,5) 1 
x(88,0) 1 
y(62,0) 1 
x(89,0) 1 
x(90,0) 1 
x(91,0) 1 
y(102,0) 1 
x(92,0) 1 
x(93,0) 1 
x(94,0) 1 
y(127,0) 1 
x(95,0) 1 
x(96,0) 1 
x(97,0) 1 
y(16,0) 1 
x(98,15) 1 
x(99,0) 1 
y(174,0) 1 
y(199,0) 1 
x(100,0) 1 
x(101,0) 1 
x(102,0) 1 
y(19,0) 1 
x(103,0) 1 
y(161,0) 1 
y(220,0) 1 
y(212,0) 1 
x(104,0) 1 
x(105,0) 1 
y(99,0) 1 
x(106,0) 1 
y(2,0) 1 
x(107,0) 1 
y(24,0) 1 
x(108,12) 1 
x(109,8) 1 
x(110,9) 1 
x(111,0) 1 
y(172,0) 1 
y(143,0) 1 
y(130,0) 1 
y(151,0) 1 
y(71,0) 1 
y(109,0) 1 
y(118,0) 1 
y(90,0) 1 
x(112,0) 1 
y(203,0) 1 
y(217,0) 1 
x(113,0) 1 
y(194,0) 1 
x(114,0) 1 
x(115,0) 1 
x(116,3) 1 
x(117,9) 1 
x(118,10) 1 
x(119,15) 1 
x(120,0) 1 
y(123,0) 1 
x(121,0) 1 
x(122,0) 1 
x(123,14) 1 
x(124,0) 1 
x(125,14) 1 
x(126,6) 1 
x(127,14) 1 
x(128,0) 1 
y(96,0) 1 
x(129,0) 1 
x(130,0) 1 
x(131,0) 1 
x(132,8) 1 
x(133,1) 1 
x(134,0) 1 
y(135,0) 1 
x(135,0) 1 
x(136,0) 1 
x(137,8) 1 
x(138,3) 1 
x(139,0) 1 
y(78,0) 1 
x(140,0) 1 
x(141,0) 1 
x(142,0) 1 
y(168,0) 1 
x(143,0) 1 
x(144,0) 1 
x(145,0) 1 
y(87,0) 1 
x(146,0) 1 
x(147,0) 1 
x(148,0) 1 
y(46,0) 1 
x(149,0) 1 
x(150,0) 1 
y(93,0) 1 
x(151,0) 1 
x(152,0) 1 
x(153,0) 1 
y(37,0) 1 
x(154,15) 1 
y(176,15) 1 
x(155,15) 1 
x(156,15) 1 
y(182,15) 1 
x(157,7) 1 
x(158,10) 1 
x(159,15) 1 
x(160,6) 1 
x(161,14) 1 
x(162,8) 1 
x(163,15) 1 
y(170,15) 1 
y(167,15) 1 
y(138,15) 1 
y(108,15) 1 
y(131,15) 1 
y(193,15) 1 
y(98,15) 1 
y(104,15) 1 
x(164,1) 1 
y(195,1) 1 
x(165,15) 1 
y(165,15) 1 
x(166,15) 1 
x(167,15) 1 
x(168,0) 1 
x(169,14) 1 
x(170,5) 1 
x(171,7) 1 
x(172,15) 1 
x(173,15) 1 
y(76,15) 1 
x(174,15) 1 
x(175,15) 1 
x(176,9) 1 
x(177,13) 1 
x(178,14) 1 
x(179,6) 1 
x(180,13) 1 
x(181,13) 1 
x(182,15) 1 
y(63,15) 1 
x(183,15) 1 
x(184,15) 1 
x(185,0) 1 
x(186,8) 1 
x(187,14) 1 
x(188,15) 1 
y(185,15) 1 
x(189,15) 1 
x(190,15) 1 
x(191,6) 1 
x(192,5) 1 
x(193,15) 1 
y(60,15) 1 
x(194,15) 1 
x(195,15) 1 
x(196,15) 1 
y(140,15) 1 
x(197,15) 1 
x(198,15) 1 
x(199,15) 1 
y(136,15) 1 
x(200,15) 1 
x(201,15) 1 
x(202,0) 1 
x(203,6) 1 
x(204,15) 1 
y(137,15) 1 
x(205,15) 1 
x(206,15) 1 
x(207,6) 1 
x(208,0) 1 
y(119,0) 1 
y(209,0) 1 
y(197,0) 1 
x(209,0) 1 
x(210,0) 1 
y(175,0) 1 
x(211,0) 1 
y(41,0) 1 
x(212,0) 1 
x(213,2) 1 
x(214,12) 1 
x(215,4) 1 
x(216,8) 1 
x(217,0) 1 
y(183,0) 1 
y(89,0) 1 
y(61,0) 1 
y(160,0) 1 
y(128,0) 1 
y(146,0) 1 
y(85,0) 1 
y(134,0) 1 
x(218,0) 1 
y(206,0) 1 
y(198,0) 1 
y(201,0) 1 
x(219,0) 1 
y(152,0) 1 
x(220,0) 1 
x(221,0) 1 
x(222,14) 1 
x(223,1) 1 
x(224,8) 1 
x(225,1) 1 
x(226,14) 1 
x(227,0) 1 
y(92,0) 1 
x(228,0) 1 
x(229,0) 1 
x(230,6) 1 
x(231,8) 1 
x(232,12) 1 
x(233,6) 1 
x(234,7) 1 
x(235,8) 1 
x(236,0) 1 
y(70,0) 1 
x(237,0) 1 
x(238,0) 1 
x(239,6) 1 
x(240,8) 1 
x(241,12) 1 
x(242,4) 1 
x(243,0) 1 
x(244,0) 1 
x(245,0) 1 
y(91,0) 1 
x(246,0) 1 
x(247,0) 1 
x(248,13) 1 
x(249,1) 1 
x(250,0) 1 
y(80,0) 1 
x(251,0) 1 
x(252,0) 1 
x(253,0) 1 
y(147,0) 1 
x(254,0) 1 
x(255,0) 1 
x(256,0) 1 
y(177,0) 1 
x(257,0) 1 
x(258,0) 1 
x(259,1) 1 
x(260,0) 1 
y(33,0) 1 
x(261,0) 1 
y(116,0) 1 
x(262,0) 1 
x(263,0) 1 
x(264,0) 1 
y(12,0) 1 
x(265,0) 1 
y(100,0) 1 
x(266,0) 1 
x(267,0) 1 
y(79,0) 1 
x(268,5) 1 
x(269,15) 1 
x(270,0) 1 
y(42,0) 1 
x(271,5) 1 
x(272,0) 1 
x(273,0) 1 
x(274,0) 1 
y(126,0) 1 
y(59,0) 1 
y(186,0) 1 
y(164,0) 1 
y(117,0) 1 
y(158,0) 1 
y(163,0) 1 
y(103,0) 1 
x(275,0) 1 
y(202,0) 1 
y(218,0) 1 
x(276,0) 1 
y(171,0) 1 
x(277,0) 1 
x(278,0) 1 
x(279,0) 1 
x(280,6) 1 
x(281,0) 1 
y(49,0) 1 
x(282,8) 1 
x(283,3) 1 
x(284,0) 1 
y(95,0) 1 
x(285,0) 1 
x(286,0) 1 
x(287,13) 1 
x(288,12) 1 
x(289,0) 1 
y(30,0) 1 
x(290,0) 1 
x(291,0) 1 
x(292,10) 1 
x(293,0) 1 
y(83,0) 1 
x(294,0) 1 
x(295,0) 1 
x(296,9) 1 
x(297,12) 1 
x(298,15) 1 
x(299,3) 1 
x(300,2) 1 
x(301,15) 1 
x(302,0) 1 
y(155,0) 1 
x(303,0) 1 
x(304,0) 1 
x(305,10) 1 
x(306,14) 1 
x(307,0) 1 
y(0,0) 1 
x(308,0) 1 
y(142,0) 1 
x(309,0) 1 
x(310,0) 1 
x(311,0) 1 
y(74,0) 1 
x(312,0) 1 
x(313,0) 1 
x(314,0) 1 
y(72,0) 1 
y(211,0) 1 
x(315,0) 1 
x(316,0) 1 
x(317,0) 1 
y(9,0) 1 
x(318,0) 1 
y(54,0) 1 
x(319,0) 1 
y(67,0) 1 
x(320,0) 1 
x(321,0) 1 
x(322,6) 1 
x(323,0) 1 
y(125,0) 1 
y(219,0) 1 
x(324,0) 1 
x(325,0) 1 
y(40,0) 1 
x(326,0) 1 
y(38,0) 1 
x(327,0) 1 
y(32,0) 1 
y(28,0) 1 
y(11,0) 1 
y(22,0) 1 
y(17,0) 1 
y(36,0) 1 
y(50,0) 1 
x(328,0) 1 
x(329,0) 1 
y(105,0) 1 
x(330,0) 1 
x(331,0) 1 
x(332,0) 1 
y(21,0) 1 
x(333,0) 1 
y(166,0) 1 
x(334,0) 1 
x(335,0) 1 
x(336,0) 1 
y(7,0) 1 
x(337,0) 1 
y(106,0) 1 
x(338,0) 1 
x(339,0) 1 
x(340,14) 1 
x(341,0) 1 
y(112,0) 1 
x(342,0) 1 
x(343,0) 1 
x(344,0) 1 
y(39,0) 1 
x(345,0) 1 
y(144,0) 1 
x(346,0) 1 
x(347,0) 1 
x(348,15) 1 
x(349,0) 1 
y(157,0) 1 
x(350,0) 1 
x(351,0) 1 
x(352,0) 1 
y(115,0) 1 
x(353,0) 1 
x(354,0) 1 
x(355,0) 1 
y(120,0) 1 
x(356,0) 1 
x(357,0) 1 
x(358,0) 1 
y(66,0) 1 
y(205,0) 1 
x(359,0) 1 
x(360,0) 1 
y(45,0) 1 
x(361,0) 1 
y(20,0) 1 
x(362,7) 1 
x(363,0) 1 
y(15,0) 1 
y(44,0) 1 
y(8,0) 1 
y(58,0) 1 
y(57,0) 1 
y(23,0) 1 
y(10,0) 1 
y(51,0) 1 
x(364,15) 1 
x(365,0) 1 
y(187,0) 1 
x(366,0) 1 
x(367,0) 1 
x(368,0) 1 
y(52,0) 1 
x(369,15) 1 
x(370,0) 1 
y(124,0) 1 
x(371,0) 1 
x(372,0) 1 
x(373,0) 1 
y(48,0) 1 
x(374,9) 1 
x(375,0) 1 
y(82,0) 1 
x(376,0) 1 
x(377,0) 1 
x(378,7) 1 
x(379,8) 1 
x(380,0) 1 
y(133,0) 1 
x(381,0) 1 
x(382,0) 1 
x(383,0) 1 
y(55,0) 1 
x(384,0) 1 
y(25,0) 1 
x(385,0) 1 
y(88,0) 1 
x(386,0) 1 
x(387,0) 1 
x(388,15) 1 
x(389,0) 1 
y(14,0) 1 
x(390,0) 1 
y(113,0) 1 
x(391,0) 1 
x(392,0) 1 
x(393,0) 1 
y(139,0) 1 
y(204,0) 1 
x(394,0) 1 
x(395,0) 1 
x(396,0) 1 
y(47,0) 1 
x(397,0) 1 
y(189,0) 1 
x(398,0) 1 
x(399,0) 1 
x(400,3) 1 
x(401,0) 1 
x(402,14) 1 
x(403,8) 1 
x(404,15) 1 
x(405,15) 1 
x(406,2) 1 
x(407,6) 1 
x(408,1) 1 
x(409,15) 1 
x(410,1) 1 
y(68,1) 1 
x(411,1) 1 
x(412,1) 1 
x(413,14) 1 
x(414,5) 1 
x(415,4) 1 
x(416,12) 1 
x(417,11) 1 
x(418,13) 1 
x(419,3) 1 
x(420,5) 1 
x(421,15) 1 
x(422,15) 1 
x(423,0) 1 
x(424,15) 1 
x(425,0) 1 
x(426,12) 1 
x(427,6) 1 
x(428,2) 1 
x(429,1) 1 
x(430,10) 1 
x(431,8) 1 
x(432,11) 1 
x(433,13) 1 
x(434,8) 1 
x(435,6) 1 
y(154,6) 1 
x(436,6) 1 
x(437,6) 1 
y(26,6) 1 
x(438,6) 1 
y(34,6) 1 
y(43,6) 1 
y(1,6) 1 
y(29,6) 1 
y(13,6) 1 
y(4,6) 1 
y(27,6) 1 
y(56,6) 1 
x(439,6) 1 
x(440,6) 1 
y(65,6) 1 
x(441,6) 1 
x(442,6) 1 
x(443,6) 1 
y(173,6) 1 
x(444,6) 1 
x(445,6) 1 
x(446,6) 1 
y(190,6) 1 
x(447,6) 1 
x(448,6) 1 
x(449,6) 1 
y(69,6) 1 
x(450,6) 1 
x(451,6) 1 
x(452,6) 1 
y(181,6) 1 
x(453,6) 1 
x(454,6) 1 
x(455,6) 1 
y(81,6) 1 
x(456,6) 1 
x(457,6) 1 
x(458,6) 1 
y(73,6) 1 
x(459,6) 1 
x(460,6) 1 
x(461,6) 1 
y(107,6) 1 
x(462,6) 1 
x(463,6) 1 
x(464,0) 1 
x(465,0) 1 
x(466,0) 1 
x(467,0) 1 
x(468,4) 1 
x(469,0) 1 
